# Solution for model r10_t9_m3_1
# Finished Task: 9 / 9
# Makespan: 419.0, Total Distance: 608.0, Total Time: 0.0162
# R O S F
0 0 13 0.0 0.0
1 1 14 0.0 0.0
2 2 17 0.0 0.0
3 3 18 0.0 0.0
4 4 11 0.0 0.0
5 5 -1 0.0 0.0
6 6 15 0.0 0.0
7 7 -1 0.0 0.0
8 8 -1 0.0 0.0
9 9 -1 0.0 0.0
10 1 -1 384.0 412.0
11 4 -1 158.0 184.0
12 2 -1 311.0 331.0
13 0 -1 387.0 419.0
14 1 16 214.0 247.0
15 6 -1 88.0 112.0
16 1 10 288.0 311.0
17 2 12 195.0 229.0
18 3 -1 154.0 193.0
